p cnf 909 571
100 0
109 0
201 202 203 204 205 206 207 208  0
301 302 303 304 305 306 307 308  0
401 402 403 404 405 406 407 408  0
501 502 503 504 505 506 507 508  0
601 602 603 604 605 606 607 608  0
701 702 703 704 705 706 707 708  0
801 802 803 804 805 806 807 808  0
901 902 903 904 905 906 907 908  0
-101 0
-102 0
-103 0
-104 0
-105 0
-106 0
-107 0
-108 0
-201 -202 0
-201 -203 0
-201 -204 0
-201 -205 0
-201 -206 0
-201 -207 0
-201 -208 0
-202 -203 0
-202 -204 0
-202 -205 0
-202 -206 0
-202 -207 0
-202 -208 0
-203 -204 0
-203 -205 0
-203 -206 0
-203 -207 0
-203 -208 0
-204 -205 0
-204 -206 0
-204 -207 0
-204 -208 0
-205 -206 0
-205 -207 0
-205 -208 0
-206 -207 0
-206 -208 0
-207 -208 0
-301 -302 0
-301 -303 0
-301 -304 0
-301 -305 0
-301 -306 0
-301 -307 0
-301 -308 0
-302 -303 0
-302 -304 0
-302 -305 0
-302 -306 0
-302 -307 0
-302 -308 0
-303 -304 0
-303 -305 0
-303 -306 0
-303 -307 0
-303 -308 0
-304 -305 0
-304 -306 0
-304 -307 0
-304 -308 0
-305 -306 0
-305 -307 0
-305 -308 0
-306 -307 0
-306 -308 0
-307 -308 0
-401 -402 0
-401 -403 0
-401 -404 0
-401 -405 0
-401 -406 0
-401 -407 0
-401 -408 0
-402 -403 0
-402 -404 0
-402 -405 0
-402 -406 0
-402 -407 0
-402 -408 0
-403 -404 0
-403 -405 0
-403 -406 0
-403 -407 0
-403 -408 0
-404 -405 0
-404 -406 0
-404 -407 0
-404 -408 0
-405 -406 0
-405 -407 0
-405 -408 0
-406 -407 0
-406 -408 0
-407 -408 0
-501 -502 0
-501 -503 0
-501 -504 0
-501 -505 0
-501 -506 0
-501 -507 0
-501 -508 0
-502 -503 0
-502 -504 0
-502 -505 0
-502 -506 0
-502 -507 0
-502 -508 0
-503 -504 0
-503 -505 0
-503 -506 0
-503 -507 0
-503 -508 0
-504 -505 0
-504 -506 0
-504 -507 0
-504 -508 0
-505 -506 0
-505 -507 0
-505 -508 0
-506 -507 0
-506 -508 0
-507 -508 0
-601 -602 0
-601 -603 0
-601 -604 0
-601 -605 0
-601 -606 0
-601 -607 0
-601 -608 0
-602 -603 0
-602 -604 0
-602 -605 0
-602 -606 0
-602 -607 0
-602 -608 0
-603 -604 0
-603 -605 0
-603 -606 0
-603 -607 0
-603 -608 0
-604 -605 0
-604 -606 0
-604 -607 0
-604 -608 0
-605 -606 0
-605 -607 0
-605 -608 0
-606 -607 0
-606 -608 0
-607 -608 0
-701 -702 0
-701 -703 0
-701 -704 0
-701 -705 0
-701 -706 0
-701 -707 0
-701 -708 0
-702 -703 0
-702 -704 0
-702 -705 0
-702 -706 0
-702 -707 0
-702 -708 0
-703 -704 0
-703 -705 0
-703 -706 0
-703 -707 0
-703 -708 0
-704 -705 0
-704 -706 0
-704 -707 0
-704 -708 0
-705 -706 0
-705 -707 0
-705 -708 0
-706 -707 0
-706 -708 0
-707 -708 0
-801 -802 0
-801 -803 0
-801 -804 0
-801 -805 0
-801 -806 0
-801 -807 0
-801 -808 0
-802 -803 0
-802 -804 0
-802 -805 0
-802 -806 0
-802 -807 0
-802 -808 0
-803 -804 0
-803 -805 0
-803 -806 0
-803 -807 0
-803 -808 0
-804 -805 0
-804 -806 0
-804 -807 0
-804 -808 0
-805 -806 0
-805 -807 0
-805 -808 0
-806 -807 0
-806 -808 0
-807 -808 0
-901 -902 0
-901 -903 0
-901 -904 0
-901 -905 0
-901 -906 0
-901 -907 0
-901 -908 0
-902 -903 0
-902 -904 0
-902 -905 0
-902 -906 0
-902 -907 0
-902 -908 0
-903 -904 0
-903 -905 0
-903 -906 0
-903 -907 0
-903 -908 0
-904 -905 0
-904 -906 0
-904 -907 0
-904 -908 0
-905 -906 0
-905 -907 0
-905 -908 0
-906 -907 0
-906 -908 0
-907 -908 0
201 301 401 501 601 701 801 901  0
202 302 402 502 602 702 802 902  0
203 303 403 503 603 703 803 903  0
204 304 404 504 604 704 804 904  0
205 305 405 505 605 705 805 905  0
206 306 406 506 606 706 806 906  0
207 307 407 507 607 707 807 907  0
208 308 408 508 608 708 808 908  0
-200 0
-209 0
-300 0
-309 0
-400 0
-409 0
-500 0
-509 0
-600 0
-609 0
-700 0
-709 0
-800 0
-809 0
-900 0
-909 0
-201 -301 0
-201 -401 0
-201 -501 0
-201 -601 0
-201 -701 0
-201 -801 0
-201 -901 0
-301 -401 0
-301 -501 0
-301 -601 0
-301 -701 0
-301 -801 0
-301 -901 0
-401 -501 0
-401 -601 0
-401 -701 0
-401 -801 0
-401 -901 0
-501 -601 0
-501 -701 0
-501 -801 0
-501 -901 0
-601 -701 0
-601 -801 0
-601 -901 0
-701 -801 0
-701 -901 0
-801 -901 0
-202 -302 0
-202 -402 0
-202 -502 0
-202 -602 0
-202 -702 0
-202 -802 0
-202 -902 0
-302 -402 0
-302 -502 0
-302 -602 0
-302 -702 0
-302 -802 0
-302 -902 0
-402 -502 0
-402 -602 0
-402 -702 0
-402 -802 0
-402 -902 0
-502 -602 0
-502 -702 0
-502 -802 0
-502 -902 0
-602 -702 0
-602 -802 0
-602 -902 0
-702 -802 0
-702 -902 0
-802 -902 0
-203 -303 0
-203 -403 0
-203 -503 0
-203 -603 0
-203 -703 0
-203 -803 0
-203 -903 0
-303 -403 0
-303 -503 0
-303 -603 0
-303 -703 0
-303 -803 0
-303 -903 0
-403 -503 0
-403 -603 0
-403 -703 0
-403 -803 0
-403 -903 0
-503 -603 0
-503 -703 0
-503 -803 0
-503 -903 0
-603 -703 0
-603 -803 0
-603 -903 0
-703 -803 0
-703 -903 0
-803 -903 0
-204 -304 0
-204 -404 0
-204 -504 0
-204 -604 0
-204 -704 0
-204 -804 0
-204 -904 0
-304 -404 0
-304 -504 0
-304 -604 0
-304 -704 0
-304 -804 0
-304 -904 0
-404 -504 0
-404 -604 0
-404 -704 0
-404 -804 0
-404 -904 0
-504 -604 0
-504 -704 0
-504 -804 0
-504 -904 0
-604 -704 0
-604 -804 0
-604 -904 0
-704 -804 0
-704 -904 0
-804 -904 0
-205 -305 0
-205 -405 0
-205 -505 0
-205 -605 0
-205 -705 0
-205 -805 0
-205 -905 0
-305 -405 0
-305 -505 0
-305 -605 0
-305 -705 0
-305 -805 0
-305 -905 0
-405 -505 0
-405 -605 0
-405 -705 0
-405 -805 0
-405 -905 0
-505 -605 0
-505 -705 0
-505 -805 0
-505 -905 0
-605 -705 0
-605 -805 0
-605 -905 0
-705 -805 0
-705 -905 0
-805 -905 0
-206 -306 0
-206 -406 0
-206 -506 0
-206 -606 0
-206 -706 0
-206 -806 0
-206 -906 0
-306 -406 0
-306 -506 0
-306 -606 0
-306 -706 0
-306 -806 0
-306 -906 0
-406 -506 0
-406 -606 0
-406 -706 0
-406 -806 0
-406 -906 0
-506 -606 0
-506 -706 0
-506 -806 0
-506 -906 0
-606 -706 0
-606 -806 0
-606 -906 0
-706 -806 0
-706 -906 0
-806 -906 0
-207 -307 0
-207 -407 0
-207 -507 0
-207 -607 0
-207 -707 0
-207 -807 0
-207 -907 0
-307 -407 0
-307 -507 0
-307 -607 0
-307 -707 0
-307 -807 0
-307 -907 0
-407 -507 0
-407 -607 0
-407 -707 0
-407 -807 0
-407 -907 0
-507 -607 0
-507 -707 0
-507 -807 0
-507 -907 0
-607 -707 0
-607 -807 0
-607 -907 0
-707 -807 0
-707 -907 0
-807 -907 0
-208 -308 0
-208 -408 0
-208 -508 0
-208 -608 0
-208 -708 0
-208 -808 0
-208 -908 0
-308 -408 0
-308 -508 0
-308 -608 0
-308 -708 0
-308 -808 0
-308 -908 0
-408 -508 0
-408 -608 0
-408 -708 0
-408 -808 0
-408 -908 0
-508 -608 0
-508 -708 0
-508 -808 0
-508 -908 0
-608 -708 0
-608 -808 0
-608 -908 0
-708 -808 0
-708 -908 0
-808 -908 0
-100 201 801 801  0
-200 401 601 801  0
-300 201 601 701  0
-400 501 601 801  0
-500 101 601 701  0
-600 201 801 901  0
-700 901 901 901  0
-800 201 501 901  0
-900 101 201 601  0
-101 202 802 802  0
-201 402 602 802  0
-301 202 602 702  0
-401 502 602 802  0
-501 102 602 702  0
-601 202 802 902  0
-701 902 902 902  0
-801 202 502 902  0
-901 102 202 602  0
-102 203 803 803  0
-202 403 603 803  0
-302 203 603 703  0
-402 503 603 803  0
-502 103 603 703  0
-602 203 803 903  0
-702 903 903 903  0
-802 203 503 903  0
-902 103 203 603  0
-103 204 804 804  0
-203 404 604 804  0
-303 204 604 704  0
-403 504 604 804  0
-503 104 604 704  0
-603 204 804 904  0
-703 904 904 904  0
-803 204 504 904  0
-903 104 204 604  0
-104 205 805 805  0
-204 405 605 805  0
-304 205 605 705  0
-404 505 605 805  0
-504 105 605 705  0
-604 205 805 905  0
-704 905 905 905  0
-804 205 505 905  0
-904 105 205 605  0
-105 206 806 806  0
-205 406 606 806  0
-305 206 606 706  0
-405 506 606 806  0
-505 106 606 706  0
-605 206 806 906  0
-705 906 906 906  0
-805 206 506 906  0
-905 106 206 606  0
-106 207 807 807  0
-206 407 607 807  0
-306 207 607 707  0
-406 507 607 807  0
-506 107 607 707  0
-606 207 807 907  0
-706 907 907 907  0
-806 207 507 907  0
-906 107 207 607  0
-107 208 808 808  0
-207 408 608 808  0
-307 208 608 708  0
-407 508 608 808  0
-507 108 608 708  0
-607 208 808 908  0
-707 908 908 908  0
-807 208 508 908  0
-907 108 208 608  0
-108 209 809 809  0
-208 409 609 809  0
-308 209 609 709  0
-408 509 609 809  0
-508 109 609 709  0
-608 209 809 909  0
-708 909 909 909  0
-808 209 509 909  0
-908 109 209 609  0
